# Solution for model problem_
# Objective value = 3.6241318190603709e+05
x(0_0) 0
x(0_1) 0
x(0_2) 0
x(0_3) 0
x(0_4) 0
x(0_5) 0
x(0_6) 0
x(0_7) 0
x(0_8) 1
x(0_9) 0
x(0_10) 0
x(0_11) 0
x(1_12) 0
x(1_13) 1
x(1_14) 0
x(1_15) 0
x(1_16) 0
x(1_17) 0
x(1_18) 0
x(1_19) 0
x(1_20) 0
x(1_21) 0
x(1_22) 0
x(1_23) 0
x(1_24) 0
x(1_25) 0
x(1_26) 0
x(1_27) 0
x(1_28) 0
x(1_29) 0
x(1_30) 0
x(2_31) 0
x(2_32) 0
x(2_33) 0
x(2_34) 0
x(2_35) 0
x(2_36) 0
x(2_37) 0
x(2_38) 0
x(2_39) 1
x(2_40) 0
x(2_41) 0
x(2_42) 0
x(2_43) 0
x(2_44) 0
x(2_45) 0
x(2_46) 0
x(2_47) 0
x(2_48) 0
x(2_49) 0
x(3_50) 0
x(3_51) 0
x(3_52) 0
x(3_53) 0
x(3_54) 0
x(3_55) 0
x(3_56) 0
x(3_57) 0
x(3_58) 0
x(3_59) 0
x(3_60) 0
x(3_61) 0
x(3_62) 0
x(3_63) 0
x(3_64) 1
x(3_65) 0
x(4_66) 0
x(4_67) 0
x(4_68) 0
x(4_69) 0
x(4_70) 0
x(4_71) 0
x(4_72) 0
x(4_73) 0
x(4_74) 0
x(4_75) 0
x(4_76) 0
x(4_77) 0
x(4_78) 0
x(4_79) 0
x(4_80) 1
x(5_81) 0
x(5_82) 0
x(5_83) 0
x(5_84) 1
x(5_85) 0
x(5_86) 0
x(5_87) 0
x(5_88) 0
x(5_89) 0
x(5_90) 0
x(6_91) 0
x(6_92) 0
x(6_93) 0
x(6_94) 0
x(6_95) 0
x(6_96) 0
x(6_97) 0
x(6_98) 0
x(6_99) 0
x(6_100) 0
x(6_101) 1
x(6_102) 0
x(6_103) 0
x(6_104) 0
x(6_105) 0
x(6_106) 0
x(7_107) 0
x(7_108) 0
x(7_109) 1
x(7_110) 0
x(7_111) 0
x(7_112) 0
x(7_113) 0
x(7_114) 0
x(7_115) 0
x(7_116) 0
x(7_117) 0
x(7_118) 0
x(8_119) 0
x(8_120) 0
x(8_121) 0
x(8_122) 0
x(8_123) 0
x(8_124) 0
x(8_125) 0
x(8_126) 0
x(8_127) 0
x(8_128) 0
x(8_129) 0
x(8_130) 0
x(8_131) 0
x(8_132) 0
x(8_133) 0
x(8_134) 1
x(8_135) 0
x(8_136) 0
x(8_137) 0
x(9_138) 0
x(9_139) 0
x(9_140) 0
x(9_141) 0
x(9_142) 0
x(9_143) 1
x(9_144) 0
x(9_145) 0
x(9_146) 0
x(9_147) 0
x(9_148) 0
x(10_149) 0
x(10_150) 0
x(10_151) 0
x(10_152) 0
x(10_153) 0
x(10_154) 0
x(10_155) 0
x(10_156) 0
x(10_157) 0
x(10_158) 0
x(10_159) 0
x(10_160) 0
x(10_161) 1
x(11_162) 0
x(11_163) 0
x(11_164) 0
x(11_165) 0
x(11_166) 0
x(11_167) 0
x(11_168) 0
x(11_169) 0
x(11_170) 1
x(11_171) 0
x(11_172) 0
x(12_173) 0
x(12_174) 0
x(12_175) 0
x(12_176) 0
x(12_177) 0
x(12_178) 0
x(12_179) 0
x(12_180) 0
x(12_181) 0
x(12_182) 0
x(12_183) 0
x(12_184) 0
x(12_185) 0
x(12_186) 0
x(12_187) 0
x(12_188) 0
x(12_189) 0
x(12_190) 1
x(13_191) 0
x(13_192) 0
x(13_193) 0
x(13_194) 0
x(13_195) 0
x(13_196) 0
x(13_197) 0
x(13_198) 1
x(13_199) 0
x(13_200) 0
x(13_201) 0
x(13_202) 0
x(13_203) 0
x(13_204) 0
x(13_205) 0
x(13_206) 0
x(14_207) 0
x(14_208) 0
x(14_209) 0
x(14_210) 0
x(14_211) 0
x(14_212) 0
x(14_213) 0
x(14_214) 1
x(14_215) 0
x(14_216) 0
x(14_217) 0
x(14_218) 0
x(14_219) 0
x(14_220) 0
x(14_221) 0
x(14_222) 0
x(14_223) 0
x(15_224) 0
x(15_225) 0
x(15_226) 0
x(15_227) 0
x(15_228) 0
x(15_229) 0
x(15_230) 0
x(15_231) 0
x(15_232) 0
x(15_233) 0
x(15_234) 0
x(15_235) 1
x(15_236) 0
x(15_237) 0
x(15_238) 0
x(15_239) 0
x(15_240) 0
x(16_241) 0
x(16_242) 1
x(16_243) 0
x(16_244) 0
x(16_245) 0
x(16_246) 0
x(16_247) 0
x(16_248) 0
x(16_249) 0
x(16_250) 0
x(16_251) 0
x(16_252) 0
x(16_253) 0
x(17_254) 0
x(17_255) 0
x(17_256) 0
x(17_257) 0
x(17_258) 0
x(17_259) 0
x(17_260) 0
x(17_261) 0
x(17_262) 0
x(17_263) 0
x(17_264) 0
x(17_265) 0
x(17_266) 0
x(17_267) 0
x(17_268) 0
x(17_269) 1
x(18_270) 0
x(18_271) 0
x(18_272) 0
x(18_273) 0
x(18_274) 0
x(18_275) 0
x(18_276) 1
x(18_277) 0
x(18_278) 0
x(18_279) 0
x(18_280) 0
x(18_281) 0
x(18_282) 0
x(18_283) 0
x(18_284) 0
x(18_285) 0
x(19_286) 0
x(19_287) 0
x(19_288) 0
x(19_289) 0
x(19_290) 0
x(19_291) 0
x(19_292) 0
x(19_293) 0
x(19_294) 0
x(19_295) 0
x(19_296) 1
x(19_297) 0
x(19_298) 0
x(19_299) 0
x(19_300) 0
x(19_301) 0
x(19_302) 0
x(20_303) 0
x(20_304) 0
x(20_305) 0
x(20_306) 0
x(20_307) 0
x(20_308) 0
x(20_309) 0
x(20_310) 0
x(20_311) 0
x(20_312) 0
x(20_313) 0
x(20_314) 0
x(20_315) 0
x(20_316) 1
x(20_317) 0
x(20_318) 0
x(20_319) 0
x(21_320) 0
x(21_321) 0
x(21_322) 0
x(21_323) 0
x(21_324) 0
x(21_325) 0
x(21_326) 0
x(21_327) 0
x(21_328) 0
x(21_329) 0
x(21_330) 0
x(21_331) 0
x(21_332) 0
x(21_333) 0
x(21_334) 1
x(22_335) 0
x(22_336) 0
x(22_337) 0
x(22_338) 0
x(22_339) 0
x(22_340) 0
x(22_341) 0
x(22_342) 1
x(22_343) 0
x(22_344) 0
x(22_345) 0
x(22_346) 0
x(22_347) 0
x(22_348) 0
x(22_349) 0
x(22_350) 0
x(22_351) 0
x(23_352) 0
x(23_353) 0
x(23_354) 1
x(23_355) 0
x(23_356) 0
x(23_357) 0
x(23_358) 0
x(23_359) 0
x(23_360) 0
x(23_361) 0
x(24_362) 0
x(24_363) 0
x(24_364) 0
x(24_365) 0
x(24_366) 0
x(24_367) 0
x(24_368) 1
x(24_369) 0
x(24_370) 0
x(24_371) 0
x(24_372) 0
x(25_373) 0
x(25_374) 0
x(25_375) 0
x(25_376) 0
x(25_377) 0
x(25_378) 0
x(25_379) 0
x(25_380) 0
x(25_381) 0
x(25_382) 1
x(25_383) 0
x(25_384) 0
x(26_385) 0
x(26_386) 0
x(26_387) 0
x(26_388) 0
x(26_389) 1
x(26_390) 0
x(26_391) 0
x(26_392) 0
x(26_393) 0
x(26_394) 0
x(27_395) 0
x(27_396) 0
x(27_397) 0
x(27_398) 1
x(27_399) 0
x(27_400) 0
x(27_401) 0
x(27_402) 0
x(27_403) 0
x(27_404) 0
x(28_405) 0
x(28_406) 0
x(28_407) 0
x(28_408) 0
x(28_409) 0
x(28_410) 0
x(28_411) 0
x(28_412) 0
x(28_413) 0
x(28_414) 1
x(28_415) 0
x(28_416) 0
x(28_417) 0
x(28_418) 0
x(28_419) 0
x(29_420) 0
x(29_421) 0
x(29_422) 0
x(29_423) 0
x(29_424) 0
x(29_425) 1
x(29_426) 0
x(29_427) 0
x(29_428) 0
x(29_429) 0
x(29_430) 0
x(29_431) 0
x(29_432) 0
x(29_433) 0
x(30_434) 0
x(30_435) 1
x(30_436) 0
x(30_437) 0
x(30_438) 0
x(30_439) 0
x(30_440) 0
x(30_441) 0
x(30_442) 0
x(30_443) 0
x(30_444) 0
x(30_445) 0
x(30_446) 0
x(30_447) 0
x(30_448) 0
x(30_449) 0
x(30_450) 0
x(30_451) 0
x(31_452) 0
x(31_453) 0
x(31_454) 1
x(31_455) 0
x(31_456) 0
x(31_457) 0
x(31_458) 0
x(31_459) 0
x(31_460) 0
x(31_461) 0
x(31_462) 0
x(31_463) 0
x(31_464) 0
x(31_465) 0
x(31_466) 0
x(31_467) 0
x(32_468) 0
x(32_469) 0
x(32_470) 0
x(32_471) 0
x(32_472) 1
x(32_473) 0
x(32_474) 0
x(32_475) 0
x(32_476) 0
x(32_477) 0
x(32_478) 0
x(32_479) 0
x(32_480) 0
x(32_481) 0
x(32_482) 0
x(32_483) 0
x(33_484) 0
x(33_485) 0
x(33_486) 0
x(33_487) 0
x(33_488) 0
x(33_489) 0
x(33_490) 0
x(33_491) 1
x(33_492) 0
x(33_493) 0
x(33_494) 0
x(33_495) 0
x(33_496) 0
x(34_497) 0
x(34_498) 0
x(34_499) 0
x(34_500) 0
x(34_501) 0
x(34_502) 0
x(34_503) 0
x(34_504) 0
x(34_505) 0
x(34_506) 0
x(34_507) 0
x(34_508) 0
x(34_509) 1
x(34_510) 0
x(34_511) 0
x(34_512) 0
x(35_513) 0
x(35_514) 0
x(35_515) 0
x(35_516) 0
x(35_517) 0
x(35_518) 0
x(35_519) 1
x(35_520) 0
x(35_521) 0
x(35_522) 0
x(35_523) 0
x(35_524) 0
x(35_525) 0
x(36_526) 0
x(36_527) 0
x(36_528) 0
x(36_529) 0
x(36_530) 0
x(36_531) 1
x(36_532) 0
x(36_533) 0
x(36_534) 0
x(36_535) 0
x(36_536) 0
x(36_537) 0
x(36_538) 0
x(36_539) 0
x(36_540) 0
x(36_541) 0
x(36_542) 0
x(36_543) 0
x(36_544) 0
x(37_545) 0
x(37_546) 0
x(37_547) 0
x(37_548) 0
x(37_549) 0
x(37_550) 1
x(37_551) 0
x(37_552) 0
x(37_553) 0
x(37_554) 0
x(37_555) 0
x(37_556) 0
x(37_557) 0
x(37_558) 0
x(37_559) 0
x(38_560) 0
x(38_561) 0
x(38_562) 0
x(38_563) 0
x(38_564) 0
x(38_565) 0
x(38_566) 0
x(38_567) 0
x(38_568) 1
x(38_569) 0
x(38_570) 0
x(38_571) 0
x(38_572) 0
x(38_573) 0
x(38_574) 0
x(38_575) 0
x(39_576) 0
x(39_577) 0
x(39_578) 0
x(39_579) 0
x(39_580) 0
x(39_581) 0
x(39_582) 0
x(39_583) 0
x(39_584) 0
x(39_585) 0
x(39_586) 0
x(39_587) 1
x(40_588) 0
x(40_589) 0
x(40_590) 0
x(40_591) 0
x(40_592) 1
x(40_593) 0
x(40_594) 0
x(40_595) 0
x(40_596) 0
x(40_597) 0
x(40_598) 0
x(40_599) 0
x(40_600) 0
x(40_601) 0
x(40_602) 0
x(40_603) 0
x(41_604) 0
x(41_605) 0
x(41_606) 0
x(41_607) 1
x(41_608) 0
x(41_609) 0
x(41_610) 0
x(41_611) 0
x(41_612) 0
x(41_613) 0
x(41_614) 0
x(41_615) 0
x(42_616) 0
x(42_617) 0
x(42_618) 1
x(42_619) 0
x(42_620) 0
x(42_621) 0
x(42_622) 0
x(42_623) 0
x(42_624) 0
x(42_625) 0
x(42_626) 0
x(43_627) 0
x(43_628) 0
x(43_629) 0
x(43_630) 1
x(43_631) 0
x(43_632) 0
x(43_633) 0
x(43_634) 0
x(43_635) 0
x(43_636) 0
x(43_637) 0
x(43_638) 0
x(44_639) 0
x(44_640) 0
x(44_641) 0
x(44_642) 0
x(44_643) 0
x(44_644) 0
x(44_645) 1
x(44_646) 0
x(44_647) 0
x(44_648) 0
x(44_649) 0
x(45_650) 0
x(45_651) 0
x(45_652) 0
x(45_653) 0
x(45_654) 0
x(45_655) 0
x(45_656) 0
x(45_657) 1
x(45_658) 0
x(45_659) 0
x(45_660) 0
x(45_661) 0
x(45_662) 0
x(45_663) 0
x(45_664) 0
x(45_665) 0
x(45_666) 0
x(46_667) 0
x(46_668) 0
x(46_669) 0
x(46_670) 0
x(46_671) 0
x(46_672) 0
x(46_673) 0
x(46_674) 0
x(46_675) 0
x(46_676) 1
x(46_677) 0
x(46_678) 0
x(46_679) 0
x(46_680) 0
x(46_681) 0
x(46_682) 0
x(46_683) 0
x(46_684) 0
x(46_685) 0
x(47_686) 0
x(47_687) 0
x(47_688) 0
x(47_689) 0
x(47_690) 0
x(47_691) 0
x(47_692) 0
x(47_693) 0
x(47_694) 0
x(47_695) 0
x(47_696) 0
x(47_697) 0
x(47_698) 0
x(47_699) 1
x(47_700) 0
x(48_701) 0
x(48_702) 0
x(48_703) 0
x(48_704) 0
x(48_705) 0
x(48_706) 0
x(48_707) 0
x(48_708) 0
x(48_709) 0
x(48_710) 0
x(48_711) 0
x(48_712) 0
x(48_713) 0
x(48_714) 0
x(48_715) 0
x(48_716) 0
x(48_717) 0
x(48_718) 0
x(48_719) 0
x(48_720) 1
x(49_721) 0
x(49_722) 0
x(49_723) 0
x(49_724) 0
x(49_725) 0
x(49_726) 0
x(49_727) 0
x(49_728) 0
x(49_729) 0
x(49_730) 0
x(49_731) 0
x(49_732) 0
x(49_733) 1
x(49_734) 0
x(49_735) 0
x(49_736) 0
x(49_737) 0
x(49_738) 0
x(49_739) 0
x(49_740) 0
x(50_741) 0
x(50_742) 0
x(50_743) 0
x(50_744) 0
x(50_745) 0
x(50_746) 1
x(50_747) 0
x(50_748) 0
x(50_749) 0
x(50_750) 0
x(50_751) 0
x(50_752) 0
x(50_753) 0
x(50_754) 0
x(50_755) 0
x(51_756) 0
x(51_757) 0
x(51_758) 0
x(51_759) 0
x(51_760) 0
x(51_761) 0
x(51_762) 0
x(51_763) 0
x(51_764) 0
x(51_765) 0
x(51_766) 1
x(51_767) 0
x(51_768) 0
x(51_769) 0
x(51_770) 0
x(51_771) 0
x(52_772) 0
x(52_773) 0
x(52_774) 0
x(52_775) 0
x(52_776) 0
x(52_777) 0
x(52_778) 0
x(52_779) 0
x(52_780) 0
x(52_781) 0
x(52_782) 0
x(52_783) 0
x(52_784) 1
x(52_785) 0
x(53_786) 0
x(53_787) 0
x(53_788) 0
x(53_789) 0
x(53_790) 1
x(53_791) 0
x(53_792) 0
x(53_793) 0
x(53_794) 0
x(53_795) 0
x(53_796) 0
x(53_797) 0
x(53_798) 0
x(53_799) 0
x(53_800) 0
x(54_801) 0
x(54_802) 0
x(54_803) 0
x(54_804) 0
x(54_805) 0
x(54_806) 0
x(54_807) 0
x(54_808) 0
x(54_809) 0
x(54_810) 0
x(54_811) 0
x(54_812) 0
x(54_813) 0
x(54_814) 0
x(54_815) 1
x(55_816) 0
x(55_817) 0
x(55_818) 0
x(55_819) 0
x(55_820) 0
x(55_821) 0
x(55_822) 0
x(55_823) 0
x(55_824) 1
x(55_825) 0
x(55_826) 0
x(56_827) 1
x(56_828) 0
x(56_829) 0
x(56_830) 0
x(56_831) 0
x(56_832) 0
x(56_833) 0
x(56_834) 0
x(56_835) 0
x(56_836) 0
x(56_837) 0
x(56_838) 0
x(56_839) 0
x(56_840) 0
x(56_841) 0
x(56_842) 0
x(57_843) 0
x(57_844) 0
x(57_845) 0
x(57_846) 0
x(57_847) 0
x(57_848) 0
x(57_849) 0
x(57_850) 1
x(57_851) 0
x(57_852) 0
x(57_853) 0
x(57_854) 0
x(57_855) 0
x(57_856) 0
x(57_857) 0
x(57_858) 0
x(57_859) 0
x(57_860) 0
x(58_861) 0
x(58_862) 0
x(58_863) 0
x(58_864) 0
x(58_865) 0
x(58_866) 0
x(58_867) 0
x(58_868) 0
x(58_869) 0
x(58_870) 0
x(58_871) 0
x(58_872) 1
x(58_873) 0
x(59_874) 0
x(59_875) 0
x(59_876) 1
x(59_877) 0
x(59_878) 0
x(59_879) 0
x(59_880) 0
x(59_881) 0
x(59_882) 0
x(59_883) 0
x(59_884) 0
x(59_885) 0
x(59_886) 0
x(59_887) 0
x(60_888) 0
x(60_889) 1
x(60_890) 0
x(60_891) 0
x(60_892) 0
x(60_893) 0
x(60_894) 0
x(60_895) 0
x(60_896) 0
x(60_897) 0
x(60_898) 0
x(60_899) 0
x(61_900) 0
x(61_901) 1
x(61_902) 0
x(61_903) 0
x(61_904) 0
x(61_905) 0
x(61_906) 0
x(61_907) 0
x(61_908) 0
x(61_909) 0
x(61_910) 0
x(61_911) 0
x(61_912) 0
x(61_913) 0
x(61_914) 0
x(61_915) 0
x(62_916) 0
x(62_917) 0
x(62_918) 0
x(62_919) 0
x(62_920) 0
x(62_921) 0
x(62_922) 0
x(62_923) 0
x(62_924) 0
x(62_925) 0
x(62_926) 0
x(62_927) 0
x(62_928) 0
x(62_929) 1
x(62_930) 0
x(62_931) 0
x(62_932) 0
x(63_933) 0
x(63_934) 0
x(63_935) 1
x(63_936) 0
x(63_937) 0
x(63_938) 0
x(63_939) 0
x(63_940) 0
x(63_941) 0
x(63_942) 0
x(63_943) 0
x(63_944) 0
x(63_945) 0
x(63_946) 0
x(63_947) 0
x(64_948) 0
x(64_949) 0
x(64_950) 0
x(64_951) 0
x(64_952) 0
x(64_953) 0
x(64_954) 0
x(64_955) 0
x(64_956) 0
x(64_957) 0
x(64_958) 0
x(64_959) 1
x(64_960) 0
x(64_961) 0
x(64_962) 0
x(64_963) 0
x(64_964) 0
x(64_965) 0
x(64_966) 0
x(65_967) 0
x(65_968) 0
x(65_969) 1
x(65_970) 0
x(65_971) 0
x(65_972) 0
x(65_973) 0
x(65_974) 0
x(65_975) 0
x(65_976) 0
x(65_977) 0
x(65_978) 0
x(65_979) 0
x(65_980) 0
x(66_981) 1
x(66_982) 0
x(66_983) 0
x(66_984) 0
x(66_985) 0
x(66_986) 0
x(66_987) 0
x(66_988) 0
x(66_989) 0
x(66_990) 0
x(66_991) 0
x(66_992) 0
x(66_993) 0
x(66_994) 0
x(66_995) 0
x(66_996) 0
x(66_997) 0
x(66_998) 0
x(66_999) 0
x(67_1000) 0
x(67_1001) 1
x(67_1002) 0
x(67_1003) 0
x(67_1004) 0
x(67_1005) 0
x(67_1006) 0
x(67_1007) 0
x(67_1008) 0
x(67_1009) 0
x(67_1010) 0
x(68_1011) 0
x(68_1012) 0
x(68_1013) 0
x(68_1014) 0
x(68_1015) 1
x(68_1016) 0
x(68_1017) 0
x(68_1018) 0
x(68_1019) 0
x(68_1020) 0
x(68_1021) 0
x(68_1022) 0
x(68_1023) 0
x(68_1024) 0
x(68_1025) 0
x(68_1026) 0
x(68_1027) 0
x(69_1028) 0
x(69_1029) 1
x(69_1030) 0
x(69_1031) 0
x(69_1032) 0
x(69_1033) 0
x(69_1034) 0
x(69_1035) 0
x(69_1036) 0
x(69_1037) 0
x(69_1038) 0
x(69_1039) 0
x(69_1040) 0
x(69_1041) 0
x(70_1042) 0
x(70_1043) 0
x(70_1044) 1
x(70_1045) 0
x(70_1046) 0
x(70_1047) 0
x(70_1048) 0
x(70_1049) 0
x(70_1050) 0
x(70_1051) 0
x(70_1052) 0
x(70_1053) 0
x(70_1054) 0
x(70_1055) 0
x(70_1056) 0
x(70_1057) 0
x(70_1058) 0
x(71_1059) 0
x(71_1060) 0
x(71_1061) 0
x(71_1062) 0
x(71_1063) 1
x(71_1064) 0
x(71_1065) 0
x(71_1066) 0
x(71_1067) 0
x(71_1068) 0
x(72_1069) 0
x(72_1070) 0
x(72_1071) 0
x(72_1072) 0
x(72_1073) 0
x(72_1074) 0
x(72_1075) 0
x(72_1076) 0
x(72_1077) 0
x(72_1078) 0
x(72_1079) 0
x(72_1080) 0
x(72_1081) 1
x(72_1082) 0
x(72_1083) 0
x(73_1084) 0
x(73_1085) 0
x(73_1086) 0
x(73_1087) 0
x(73_1088) 0
x(73_1089) 0
x(73_1090) 0
x(73_1091) 0
x(73_1092) 0
x(73_1093) 0
x(73_1094) 0
x(73_1095) 0
x(73_1096) 1
x(73_1097) 0
x(73_1098) 0
x(73_1099) 0
x(73_1100) 0
x(73_1101) 0
x(74_1102) 1
x(74_1103) 0
x(74_1104) 0
x(74_1105) 0
x(74_1106) 0
x(74_1107) 0
x(74_1108) 0
x(74_1109) 0
x(74_1110) 0
x(74_1111) 0
x(75_1112) 0
x(75_1113) 0
x(75_1114) 0
x(75_1115) 0
x(75_1116) 0
x(75_1117) 0
x(75_1118) 0
x(75_1119) 0
x(75_1120) 0
x(75_1121) 0
x(75_1122) 1
x(75_1123) 0
x(75_1124) 0
x(76_1125) 1
x(76_1126) 0
x(76_1127) 0
x(76_1128) 0
x(76_1129) 0
x(76_1130) 0
x(76_1131) 0
x(76_1132) 0
x(76_1133) 0
x(76_1134) 0
x(76_1135) 0
x(76_1136) 0
x(76_1137) 0
x(76_1138) 0
x(77_1139) 0
x(77_1140) 0
x(77_1141) 0
x(77_1142) 0
x(77_1143) 1
x(77_1144) 0
x(77_1145) 0
x(77_1146) 0
x(77_1147) 0
x(77_1148) 0
x(77_1149) 0
x(77_1150) 0
x(78_1151) 0
x(78_1152) 1
x(78_1153) 0
x(78_1154) 0
x(78_1155) 0
x(78_1156) 0
x(78_1157) 0
x(78_1158) 0
x(78_1159) 0
x(78_1160) 0
x(78_1161) 0
x(78_1162) 0
x(78_1163) 0
x(79_1164) 0
x(79_1165) 0
x(79_1166) 0
x(79_1167) 0
x(79_1168) 0
x(79_1169) 0
x(79_1170) 0
x(79_1171) 0
x(79_1172) 0
x(79_1173) 0
x(79_1174) 0
x(79_1175) 0
x(79_1176) 1
x(79_1177) 0
x(80_1178) 0
x(80_1179) 0
x(80_1180) 0
x(80_1181) 0
x(80_1182) 0
x(80_1183) 0
x(80_1184) 0
x(80_1185) 0
x(80_1186) 0
x(80_1187) 0
x(80_1188) 0
x(80_1189) 0
x(80_1190) 0
x(80_1191) 0
x(80_1192) 1
x(80_1193) 0
x(80_1194) 0
x(80_1195) 0
x(80_1196) 0
x(81_1197) 0
x(81_1198) 0
x(81_1199) 0
x(81_1200) 0
x(81_1201) 0
x(81_1202) 0
x(81_1203) 0
x(81_1204) 0
x(81_1205) 0
x(81_1206) 0
x(81_1207) 0
x(81_1208) 1
x(81_1209) 0
x(81_1210) 0
x(81_1211) 0
x(81_1212) 0
x(82_1213) 0
x(82_1214) 0
x(82_1215) 0
x(82_1216) 0
x(82_1217) 0
x(82_1218) 0
x(82_1219) 0
x(82_1220) 0
x(82_1221) 0
x(82_1222) 0
x(82_1223) 0
x(82_1224) 0
x(82_1225) 1
x(83_1226) 0
x(83_1227) 0
x(83_1228) 0
x(83_1229) 0
x(83_1230) 0
x(83_1231) 0
x(83_1232) 0
x(83_1233) 0
x(83_1234) 0
x(83_1235) 0
x(83_1236) 0
x(83_1237) 0
x(83_1238) 1
x(83_1239) 0
x(83_1240) 0
x(83_1241) 0
x(83_1242) 0
x(83_1243) 0
x(83_1244) 0
x(83_1245) 0
x(84_1246) 0
x(84_1247) 0
x(84_1248) 1
x(84_1249) 0
x(84_1250) 0
x(84_1251) 0
x(84_1252) 0
x(84_1253) 0
x(84_1254) 0
x(84_1255) 0
x(85_1256) 0
x(85_1257) 0
x(85_1258) 0
x(85_1259) 1
x(85_1260) 0
x(85_1261) 0
x(85_1262) 0
x(85_1263) 0
x(85_1264) 0
x(85_1265) 0
x(85_1266) 0
x(85_1267) 0
x(85_1268) 0
x(86_1269) 0
x(86_1270) 0
x(86_1271) 0
x(86_1272) 0
x(86_1273) 0
x(86_1274) 0
x(86_1275) 0
x(86_1276) 0
x(86_1277) 0
x(86_1278) 0
x(86_1279) 0
x(86_1280) 0
x(86_1281) 1
x(86_1282) 0
x(86_1283) 0
x(86_1284) 0
x(86_1285) 0
x(87_1286) 0
x(87_1287) 0
x(87_1288) 1
x(87_1289) 0
x(87_1290) 0
x(87_1291) 0
x(87_1292) 0
x(87_1293) 0
x(87_1294) 0
x(87_1295) 0
x(87_1296) 0
x(87_1297) 0
x(87_1298) 0
x(87_1299) 0
x(88_1300) 1
x(88_1301) 0
x(88_1302) 0
x(88_1303) 0
x(88_1304) 0
x(88_1305) 0
x(88_1306) 0
x(88_1307) 0
x(88_1308) 0
x(88_1309) 0
x(88_1310) 0
x(88_1311) 0
x(89_1312) 0
x(89_1313) 0
x(89_1314) 0
x(89_1315) 0
x(89_1316) 0
x(89_1317) 0
x(89_1318) 1
x(89_1319) 0
x(89_1320) 0
x(89_1321) 0
x(89_1322) 0
x(89_1323) 0
x(89_1324) 0
x(89_1325) 0
x(90_1326) 0
x(90_1327) 0
x(90_1328) 0
x(90_1329) 0
x(90_1330) 0
x(90_1331) 0
x(90_1332) 0
x(90_1333) 0
x(90_1334) 0
x(90_1335) 1
x(90_1336) 0
x(90_1337) 0
x(90_1338) 0
x(90_1339) 0
x(90_1340) 0
x(90_1341) 0
x(90_1342) 0
x(90_1343) 0
x(90_1344) 0
x(90_1345) 0
x(91_1346) 0
x(91_1347) 0
x(91_1348) 0
x(91_1349) 0
x(91_1350) 1
x(91_1351) 0
x(91_1352) 0
x(91_1353) 0
x(91_1354) 0
x(91_1355) 0
x(91_1356) 0
x(91_1357) 0
x(92_1358) 0
x(92_1359) 0
x(92_1360) 0
x(92_1361) 0
x(92_1362) 0
x(92_1363) 0
x(92_1364) 0
x(92_1365) 0
x(92_1366) 0
x(92_1367) 0
x(92_1368) 0
x(92_1369) 0
x(92_1370) 0
x(92_1371) 0
x(92_1372) 0
x(92_1373) 0
x(92_1374) 1
x(92_1375) 0
x(92_1376) 0
x(93_1377) 0
x(93_1378) 0
x(93_1379) 0
x(93_1380) 0
x(93_1381) 0
x(93_1382) 0
x(93_1383) 0
x(93_1384) 0
x(93_1385) 0
x(93_1386) 0
x(93_1387) 0
x(93_1388) 1
x(93_1389) 0
x(93_1390) 0
x(93_1391) 0
x(93_1392) 0
x(93_1393) 0
x(93_1394) 0
x(93_1395) 0
x(94_1396) 0
x(94_1397) 0
x(94_1398) 0
x(94_1399) 0
x(94_1400) 0
x(94_1401) 0
x(94_1402) 1
x(94_1403) 0
x(94_1404) 0
x(94_1405) 0
x_1_0 4.9999516815008785e+04
s_1_0 5.0000483184991215e+04
z_1_0 5.0000483184991218e-01
x_1_1 0
s_1_1 1.1541378737892956e+00
z_1_1 1
x_1_2 0
s_1_2 1.5007712412334513e+00
z_1_2 1
x_1_3 0
s_1_3 1.0592035981198933e+00
z_1_3 1
x_1_4 4.9999550452970696e+04
s_1_4 5.0000449547029304e+04
z_1_4 0.500004495470293
x_1_5 5.2342997825518250e+02
s_1_5 0
z_1_5 9.9476570021744815e-01
x_1_6 5.2196445425601269e+02
s_1_6 0
z_1_6 9.9478035545743992e-01
x_1_7 5.2305067370973120e+02
s_1_7 0
z_1_7 9.9476949326290276e-01
x_1_8 0
s_1_8 1.0525348492665216e+00
z_1_8 1
x_1_9 5.2319731685752049e+02
s_1_9 0
z_1_9 9.9476802683142473e-01
x_1_10 0
s_1_10 1.0174343675607815e+00
z_1_10 1
x_1_11 0
s_1_11 1.3644302785996842e+00
z_1_11 1
x_1_12 4.9999458043861858e+04
s_1_12 5.0000541956138142e+04
z_1_12 5.0000541956138145e-01
x_1_13 0
s_1_13 8.1341655465075746e-01
z_1_13 1
x_1_14 5.2712337548658252e+02
s_1_14 0
z_1_14 9.9472876624513418e-01
x_1_15 0
s_1_15 1.4560759869054891e+00
z_1_15 1
x_1_16 526.422043967541
s_1_16 0
z_1_16 9.9473577956032466e-01
x_1_17 5.2500035310350358e+02
s_1_17 0
z_1_17 0.994749996468965
x_1_18 0
s_1_18 1.2131108765242971e+00
z_1_18 1
x_1_19 0
s_1_19 1.4751327891135588e+00
z_1_19 1
x_1_20 0
s_1_20 2.07157597981859
z_1_20 1
x_1_21 5.2404873579136620e+02
s_1_21 0
z_1_21 9.9475951264208640e-01
x_1_22 0
s_1_22 8.1653009529691190e-01
z_1_22 1
x_1_23 5.2589260392263532e+02
s_1_23 0
z_1_23 9.9474107396077371e-01
x_1_24 5.2281879452709109e+02
s_1_24 0
z_1_24 9.9477181205472909e-01
x_1_25 0
s_1_25 1.2155636824318208e+00
z_1_25 1
x_1_26 0
s_1_26 1.2532206502255576e+00
z_1_26 1
x_1_27 5.2720585875678807e+02
s_1_27 0
z_1_27 9.9472794141243215e-01
x_1_28 5.2638540815842862e+02
s_1_28 0
z_1_28 9.9473614591841575e-01
x_1_29 0
s_1_29 1.5796006176096853e+00
z_1_29 1
x_1_30 0
s_1_30 1.4249047805860755e+00
z_1_30 1
x_1_31 524.465625799261
s_1_31 0
z_1_31 9.9475534374200736e-01
x_1_32 5.2433489009365439e+02
s_1_32 0
z_1_32 9.9475665109906353e-01
x_1_33 5.2674101249314845e+02
s_1_33 0
z_1_33 9.9473258987506852e-01
x_1_34 0
s_1_34 6.3766888703685254e-01
z_1_34 1
x_1_35 0
s_1_35 1.7919104719039751e+00
z_1_35 1
x_1_36 0
s_1_36 1.7412434520410898e+00
z_1_36 1
x_1_37 5.2153785530664027e+02
s_1_37 0
z_1_37 9.9478462144693358e-01
x_1_38 5.2168809344619513e+02
s_1_38 0
z_1_38 9.9478311906553807e-01
x_1_39 5.2692328543146141e+02
s_1_39 0
z_1_39 9.9473076714568542e-01
x_1_40 0
s_1_40 1.5164310647815
z_1_40 1
x_1_41 5.2725249374097621e+02
s_1_41 0
z_1_41 9.9472747506259018e-01
x_1_42 5.2742137744836509e+02
s_1_42 0
z_1_42 9.9472578622551633e-01
x_1_43 0
s_1_43 8.8597366057001636e-01
z_1_43 1
x_1_44 5.2342481940705329e+02
s_1_44 0
z_1_44 9.9476575180592952e-01
x_1_45 5.2172149344906211e+02
s_1_45 0
z_1_45 9.9478278506550932e-01
x_1_46 5.2219609081838280e+02
s_1_46 0
z_1_46 9.9477803909181617e-01
x_1_47 4.9999560738380707e+04
s_1_47 5.0000439261619293e+04
z_1_47 5.0000439261619289e-01
x_1_48 0
s_1_48 1.1390393668552861e+00
z_1_48 1
x_1_49 521.696166722104
s_1_49 0
z_1_49 9.9478303833277892e-01
x_1_50 5.2623391044931486e+02
s_1_50 0
z_1_50 9.9473766089550686e-01
x_1_51 5.2561929399985820e+02
s_1_51 0
z_1_51 9.9474380706000143e-01
x_1_52 5.2690300294570625e+02
s_1_52 0
z_1_52 0.994730969970543
x_1_53 5.2525080916471779e+02
s_1_53 0
z_1_53 9.9474749190835288e-01
x_1_54 5.2617014656215906e+02
s_1_54 0
z_1_54 9.9473829853437834e-01
x_1_55 5.2542542004121060e+02
s_1_55 0
z_1_55 0.994745745799588
x_1_56 5.2271925736486446e+02
s_1_56 0
z_1_56 9.9477280742635132e-01
x_1_57 0
s_1_57 8.3056384075462120e-01
z_1_57 1
x_1_58 5.2326791433244944e+02
s_1_58 0
z_1_58 9.9476732085667552e-01
x_1_59 5.2534334227629006e+02
s_1_59 0
z_1_59 9.9474656657723715e-01
x_1_60 5.2297269586053153e+02
s_1_60 0
z_1_60 9.9477027304139465e-01
x_1_61 4.9999132925348880e+04
s_1_61 5.0000867074651120e+04
z_1_61 5.0000867074651123e-01
x_1_62 5.2406649127414858e+02
s_1_62 0
z_1_62 9.9475933508725845e-01
x_1_63 5.2259341036714613e+02
s_1_63 0
z_1_63 9.9477406589632855e-01
x_1_64 0
s_1_64 1.3502597298502224e+00
z_1_64 1
x_1_65 0
s_1_65 9.0885013411752880e-01
z_1_65 1
x_1_66 4.9999508603726572e+04
s_1_66 5.0000491396273428e+04
z_1_66 5.0000491396273428e-01
x_1_67 5.2711568221636117e+02
s_1_67 0
z_1_67 9.9472884317783639e-01
x_1_68 0
s_1_68 7.9277576486492762e-01
z_1_68 1
x_1_69 0
s_1_69 1.0405719009613676e+00
z_1_69 1
x_1_70 5.2506746136955917e+02
s_1_70 0
z_1_70 9.9474932538630434e-01
x_1_71 0
s_1_71 1.4142457309062593e+00
z_1_71 1
x_1_72 0
s_1_72 5.7115055259782821e-01
z_1_72 1
x_1_73 0
s_1_73 2.0735976505238796e+00
z_1_73 1
x_1_74 0
s_1_74 8.3500219330562686e-01
z_1_74 1
x_1_75 5.2536455136163568e+02
s_1_75 0
z_1_75 9.9474635448638360e-01
x_1_76 0
s_1_76 1.4467726444636355e+00
z_1_76 1
x_1_77 5.2192042287625372e+02
s_1_77 0
z_1_77 9.9478079577123746e-01
x_1_78 0
s_1_78 1.4465597514358706e+00
z_1_78 1
x_1_79 5.2705782675836235e+02
s_1_79 0
z_1_79 9.9472942173241641e-01
x_1_80 0
s_1_80 1.2641872237436473e+00
z_1_80 1
x_1_81 4.9999305869971569e+04
s_1_81 5.0000694130028438e+04
z_1_81 5.0000694130028434e-01
x_1_82 0
s_1_82 8.6026367938757176e-01
z_1_82 1
x_1_83 0
s_1_83 1.0248040319202119e+00
z_1_83 1
x_1_84 5.2081974074058235e+02
s_1_84 0
z_1_84 9.9479180259259414e-01
x_1_85 5.2232537322491407e+02
s_1_85 0
z_1_85 9.9477674626775081e-01
x_1_86 5.2683069454575889e+02
s_1_86 0
z_1_86 9.9473169305454245e-01
x_1_87 5.2678430228961224e+02
s_1_87 0
z_1_87 9.9473215697710393e-01
x_1_88 5.2293358191475272e+02
s_1_88 0
z_1_88 9.9477066418085247e-01
x_1_89 5.2101511451834813e+02
s_1_89 0
z_1_89 9.9478984885481658e-01
x_1_90 4.9999032899824291e+04
s_1_90 5.0000967100175709e+04
z_1_90 5.0000967100175708e-01
x_1_91 5.2598599135084078e+02
s_1_91 0
z_1_91 9.9474014008649159e-01
x_1_92 0
s_1_92 5.9511980286333710e-01
z_1_92 1
x_1_93 5.2651204026490450e+02
s_1_93 0
z_1_93 0.994734879597351
x_1_94 4.9999431233124335e+04
s_1_94 5.0000568766875665e+04
z_1_94 5.0000568766875664e-01
x_1_95 4.9999701436010117e+04
s_1_95 5.0000298563989883e+04
z_1_95 5.0000298563989887e-01
x_1_96 4.9999839262672685e+04
s_1_96 5.0000160737327315e+04
z_1_96 5.0000160737327315e-01
x_1_97 5.2626882335451955e+02
s_1_97 0
z_1_97 9.9473731176645486e-01
x_1_98 0
s_1_98 1.0498311489645857e+00
z_1_98 1
x_1_99 5.2515140852751210e+02
s_1_99 0
z_1_99 9.9474848591472487e-01
x_1_100 0
s_1_100 1.9609883553275722e+00
z_1_100 1
x_1_101 4.9999665256168861e+04
s_1_101 5.0000334743831139e+04
z_1_101 5.0000334743831143e-01
x_1_102 0
s_1_102 1.3686294778744923e+00
z_1_102 1
x_1_103 5.2092213994730264e+02
s_1_103 0
z_1_103 0.994790778600527
x_1_104 5.2262979103624821e+02
s_1_104 0
z_1_104 9.9477370208963756e-01
x_1_105 0
s_1_105 1.6447923243104015e+00
z_1_105 1
x_1_106 520.816747165285
s_1_106 0
z_1_106 9.9479183252834713e-01
x_1_107 5.2082265134993941e+02
s_1_107 0
z_1_107 9.9479177348650061e-01
x_1_108 5.2513300919719040e+02
s_1_108 0
z_1_108 9.9474866990802813e-01
x_1_109 5.2471576245222241e+02
s_1_109 0
z_1_109 9.9475284237547779e-01
x_1_110 5.2403712925313448e+02
s_1_110 0
z_1_110 9.9475962870746859e-01
x_1_111 5.2411511981765216e+02
s_1_111 0
z_1_111 9.9475884880182341e-01
x_1_112 523.831923823338
s_1_112 0
z_1_112 9.9476168076176663e-01
x_1_113 5.2347987727262080e+02
s_1_113 0
z_1_113 9.9476520122727385e-01
x_1_114 520.779991348274
s_1_114 0
z_1_114 9.9479220008651725e-01
x_1_115 4.9999469625933212e+04
s_1_115 5.0000530374066788e+04
z_1_115 5.0000530374066787e-01
x_1_116 5.2132208822038956e+02
s_1_116 0
z_1_116 9.9478677911779612e-01
x_1_117 0
s_1_117 1.4078986103704665e+00
z_1_117 1
x_1_118 522.903380131349
s_1_118 0
z_1_118 9.9477096619868655e-01
x_1_119 0
s_1_119 9.5187416937551461e-01
z_1_119 1
x_1_120 5.2670079957880080e+02
s_1_120 0
z_1_120 9.9473299200421206e-01
x_1_121 5.2669523954577744e+02
s_1_121 0
z_1_121 9.9473304760454218e-01
x_1_122 0
s_1_122 1.6707020411040503e+00
z_1_122 1
x_1_123 5.2197233876305108e+02
s_1_123 0
z_1_123 9.9478027661236945e-01
x_1_124 5.2620082444325089e+02
s_1_124 0
z_1_124 9.9473799175556754e-01
x_1_125 4.9999468916310128e+04
s_1_125 5.0000531083689872e+04
z_1_125 5.0000531083689870e-01
x_1_126 0
s_1_126 1.5261572563467780e+00
z_1_126 1
x_1_127 5.2052142873220146e+02
s_1_127 0
z_1_127 0.994794785712678
x_1_128 5.2402039450081065e+02
s_1_128 0
z_1_128 9.9475979605499187e-01
x_1_129 5.2713252385146916e+02
s_1_129 0
z_1_129 9.9472867476148530e-01
x_1_130 0
s_1_130 1.3932126384315779e+00
z_1_130 1
x_1_131 5.2423499455675483e+02
s_1_131 0
z_1_131 9.9475765005443240e-01
x_1_132 0
s_1_132 5.6990882699028589e-01
z_1_132 1
x_1_133 0
s_1_133 1.1276760731307149e+00
z_1_133 1
x_1_134 5.2432612319570035e+02
s_1_134 0
z_1_134 0.994756738768043
x_1_135 0
s_1_135 5.4887864325428382e-01
z_1_135 1
x_1_136 0
s_1_136 7.9021337843732908e-01
z_1_136 1
x_1_137 0
s_1_137 1.1444524255348369e+00
z_1_137 1
x_1_138 5.2622781089693308e+02
s_1_138 0
z_1_138 9.9473772189103071e-01
x_1_139 5.2511204155394807e+02
s_1_139 0
z_1_139 9.9474887958446057e-01
x_1_140 5.2081143818609416e+02
s_1_140 0
z_1_140 0.994791885618139
x_1_141 5.2432318261453474e+02
s_1_141 0
z_1_141 9.9475676817385472e-01
x_1_142 49999.2910330492
s_1_142 5.0000708966950806e+04
z_1_142 0.500007089669508
x_1_143 5.2473191048949957e+02
s_1_143 0
z_1_143 9.9475268089510493e-01
x_1_144 4.9999420641408862e+04
s_1_144 5.0000579358591138e+04
z_1_144 5.0000579358591135e-01
x_1_145 0
s_1_145 1.3685236681194510e+00
z_1_145 1
x_1_146 0
s_1_146 1.1760532574262470e+00
z_1_146 1
x_1_147 5.2630555958673358e+02
s_1_147 0
z_1_147 9.9473694440413263e-01
x_1_148 0
s_1_148 1.1599959757004399e+00
z_1_148 1
x_1_149 5.2393225668091327e+02
s_1_149 0
z_1_149 9.9476067743319085e-01
x_1_150 5.2505689473869279e+02
s_1_150 0
z_1_150 0.994749431052613
x_1_151 0
s_1_151 1.0517616252836888e+00
z_1_151 1
x_1_152 0
s_1_152 1.0596402094233781e+00
z_1_152 1
x_1_153 5.2687929956382141e+02
s_1_153 0
z_1_153 9.9473120700436179e-01
x_1_154 5.2498783590270614e+02
s_1_154 0
z_1_154 9.9475012164097287e-01
x_1_155 0
s_1_155 1.0489779479103163e+00
z_1_155 1
x_1_156 0
s_1_156 1.5016636654909234e+00
z_1_156 1
x_1_157 5.2105387276595866e+02
s_1_157 0
z_1_157 9.9478946127234036e-01
x_1_158 5.2548021868662909e+02
s_1_158 0
z_1_158 9.9474519781313375e-01
x_1_159 5.2545723941363394e+02
s_1_159 0
z_1_159 9.9474542760586371e-01
x_2_0 3.6105103490603709e+05
